NAME CPP
ROWS
 N COST
 E F1500
 E F1502
 E F1504
 E F1506
 E F1508
 E F1501
 E F1503
 E F1505
 E F1507
 E F1509
COLUMNS
 X1 COST 1878
 X1 F1500 1
 X1 F1506 1
 X1 F1508 1
 X1 F1501 1
 X1 F1503 1
 X1 F1505 1
 X2 COST 1909
 X2 F1500 1
 X2 F1506 1
 X2 F1508 1
 X2 F1501 1
 X2 F1503 1
 X2 F1507 1
 X3 COST 1938
 X3 F1500 1
 X3 F1506 1
 X3 F1508 1
 X3 F1501 1
 X3 F1503 1
 X3 F1509 1
 X4 COST 1270
 X4 F1500 1
 X4 F1506 1
 X4 F1501 1
 X4 F1503 1
 X5 COST 2710
 X5 F1500 1
 X5 F1506 1
 X5 F1501 1
 X5 F1503 1
 X6 COST 1300
 X6 F1500 1
 X6 F1506 1
 X6 F1501 1
 X6 F1505 1
 X7 COST 2740
 X7 F1500 1
 X7 F1506 1
 X7 F1501 1
 X7 F1505 1
 X8 COST 1331
 X8 F1500 1
 X8 F1506 1
 X8 F1501 1
 X8 F1507 1
 X9 COST 2771
 X9 F1500 1
 X9 F1506 1
 X9 F1501 1
 X9 F1507 1
 X10 COST 1360
 X10 F1500 1
 X10 F1506 1
 X10 F1501 1
 X10 F1509 1
 X11 COST 2800
 X11 F1500 1
 X11 F1506 1
 X11 F1501 1
 X11 F1509 1
 X12 COST 1270
 X12 F1500 1
 X12 F1508 1
 X12 F1501 1
 X12 F1503 1
 X13 COST 2710
 X13 F1500 1
 X13 F1508 1
 X13 F1501 1
 X13 F1503 1
 X14 COST 1300
 X14 F1500 1
 X14 F1508 1
 X14 F1501 1
 X14 F1505 1
 X15 COST 2740
 X15 F1500 1
 X15 F1508 1
 X15 F1501 1
 X15 F1505 1
 X16 COST 1331
 X16 F1500 1
 X16 F1508 1
 X16 F1501 1
 X16 F1507 1
 X17 COST 2771
 X17 F1500 1
 X17 F1508 1
 X17 F1501 1
 X17 F1507 1
 X18 COST 1360
 X18 F1500 1
 X18 F1508 1
 X18 F1501 1
 X18 F1509 1
 X19 COST 2800
 X19 F1500 1
 X19 F1508 1
 X19 F1501 1
 X19 F1509 1
 X20 COST 662
 X20 F1500 1
 X20 F1501 1
 X21 COST 2710
 X21 F1500 1
 X21 F1506 1
 X21 F1501 1
 X21 F1503 1
 X22 COST 2740
 X22 F1500 1
 X22 F1506 1
 X22 F1501 1
 X22 F1505 1
 X23 COST 2771
 X23 F1500 1
 X23 F1506 1
 X23 F1501 1
 X23 F1507 1
 X24 COST 2800
 X24 F1500 1
 X24 F1506 1
 X24 F1501 1
 X24 F1509 1
 X25 COST 2710
 X25 F1500 1
 X25 F1508 1
 X25 F1501 1
 X25 F1503 1
 X26 COST 2740
 X26 F1500 1
 X26 F1508 1
 X26 F1501 1
 X26 F1505 1
 X27 COST 2771
 X27 F1500 1
 X27 F1508 1
 X27 F1501 1
 X27 F1507 1
 X28 COST 2800
 X28 F1500 1
 X28 F1508 1
 X28 F1501 1
 X28 F1509 1
 X29 COST 2102
 X29 F1500 1
 X29 F1501 1
 X30 COST 1878
 X30 F1500 1
 X30 F1506 1
 X30 F1508 1
 X30 F1501 1
 X30 F1503 1
 X30 F1505 1
 X31 COST 1909
 X31 F1500 1
 X31 F1506 1
 X31 F1508 1
 X31 F1501 1
 X31 F1503 1
 X31 F1507 1
 X32 COST 1938
 X32 F1500 1
 X32 F1506 1
 X32 F1508 1
 X32 F1501 1
 X32 F1503 1
 X32 F1509 1
 X33 COST 1240
 X33 F1500 1
 X33 F1508 1
 X33 F1501 1
 X33 F1503 1
 X34 COST 2680
 X34 F1500 1
 X34 F1508 1
 X34 F1501 1
 X34 F1503 1
 X35 COST 1300
 X35 F1500 1
 X35 F1508 1
 X35 F1503 1
 X35 F1505 1
 X36 COST 2740
 X36 F1500 1
 X36 F1508 1
 X36 F1503 1
 X36 F1505 1
 X37 COST 1331
 X37 F1500 1
 X37 F1508 1
 X37 F1503 1
 X37 F1507 1
 X38 COST 2771
 X38 F1500 1
 X38 F1508 1
 X38 F1503 1
 X38 F1507 1
 X39 COST 1360
 X39 F1500 1
 X39 F1508 1
 X39 F1503 1
 X39 F1509 1
 X40 COST 2800
 X40 F1500 1
 X40 F1508 1
 X40 F1503 1
 X40 F1509 1
 X41 COST 692
 X41 F1500 1
 X41 F1503 1
 X42 COST 2680
 X42 F1500 1
 X42 F1508 1
 X42 F1501 1
 X42 F1503 1
 X43 COST 2740
 X43 F1500 1
 X43 F1508 1
 X43 F1503 1
 X43 F1505 1
 X44 COST 2771
 X44 F1500 1
 X44 F1508 1
 X44 F1503 1
 X44 F1507 1
 X45 COST 2800
 X45 F1500 1
 X45 F1508 1
 X45 F1503 1
 X45 F1509 1
 X46 COST 2132
 X46 F1500 1
 X46 F1503 1
 X47 COST 722
 X47 F1500 1
 X47 F1505 1
 X48 COST 3
 X48 F1500 1
 X48 F1507 1
 X49 COST 753
 X49 F1500 1
 X49 F1507 1
 X50 COST 32
 X50 F1500 1
 X50 F1509 1
 X51 COST 782
 X51 F1500 1
 X51 F1509 1
 X52 COST 1847
 X52 F1502 1
 X52 F1506 1
 X52 F1508 1
 X52 F1501 1
 X52 F1503 1
 X52 F1505 1
 X53 COST 1878
 X53 F1502 1
 X53 F1506 1
 X53 F1508 1
 X53 F1501 1
 X53 F1503 1
 X53 F1507 1
 X54 COST 1907
 X54 F1502 1
 X54 F1506 1
 X54 F1508 1
 X54 F1501 1
 X54 F1503 1
 X54 F1509 1
 X55 COST 1239
 X55 F1502 1
 X55 F1506 1
 X55 F1501 1
 X55 F1503 1
 X56 COST 2679
 X56 F1502 1
 X56 F1506 1
 X56 F1501 1
 X56 F1503 1
 X57 COST 1269
 X57 F1502 1
 X57 F1506 1
 X57 F1501 1
 X57 F1505 1
 X58 COST 2709
 X58 F1502 1
 X58 F1506 1
 X58 F1501 1
 X58 F1505 1
 X59 COST 1300
 X59 F1502 1
 X59 F1506 1
 X59 F1501 1
 X59 F1507 1
 X60 COST 2740
 X60 F1502 1
 X60 F1506 1
 X60 F1501 1
 X60 F1507 1
 X61 COST 1329
 X61 F1502 1
 X61 F1506 1
 X61 F1501 1
 X61 F1509 1
 X62 COST 2769
 X62 F1502 1
 X62 F1506 1
 X62 F1501 1
 X62 F1509 1
 X63 COST 1239
 X63 F1502 1
 X63 F1508 1
 X63 F1501 1
 X63 F1503 1
 X64 COST 2679
 X64 F1502 1
 X64 F1508 1
 X64 F1501 1
 X64 F1503 1
 X65 COST 1269
 X65 F1502 1
 X65 F1508 1
 X65 F1501 1
 X65 F1505 1
 X66 COST 2709
 X66 F1502 1
 X66 F1508 1
 X66 F1501 1
 X66 F1505 1
 X67 COST 1300
 X67 F1502 1
 X67 F1508 1
 X67 F1501 1
 X67 F1507 1
 X68 COST 2740
 X68 F1502 1
 X68 F1508 1
 X68 F1501 1
 X68 F1507 1
 X69 COST 1329
 X69 F1502 1
 X69 F1508 1
 X69 F1501 1
 X69 F1509 1
 X70 COST 2769
 X70 F1502 1
 X70 F1508 1
 X70 F1501 1
 X70 F1509 1
 X71 COST 631
 X71 F1502 1
 X71 F1501 1
 X72 COST 2679
 X72 F1502 1
 X72 F1506 1
 X72 F1501 1
 X72 F1503 1
 X73 COST 2709
 X73 F1502 1
 X73 F1506 1
 X73 F1501 1
 X73 F1505 1
 X74 COST 2740
 X74 F1502 1
 X74 F1506 1
 X74 F1501 1
 X74 F1507 1
 X75 COST 2769
 X75 F1502 1
 X75 F1506 1
 X75 F1501 1
 X75 F1509 1
 X76 COST 2679
 X76 F1502 1
 X76 F1508 1
 X76 F1501 1
 X76 F1503 1
 X77 COST 2709
 X77 F1502 1
 X77 F1508 1
 X77 F1501 1
 X77 F1505 1
 X78 COST 2740
 X78 F1502 1
 X78 F1508 1
 X78 F1501 1
 X78 F1507 1
 X79 COST 2769
 X79 F1502 1
 X79 F1508 1
 X79 F1501 1
 X79 F1509 1
 X80 COST 2071
 X80 F1502 1
 X80 F1501 1
 X81 COST 1847
 X81 F1502 1
 X81 F1506 1
 X81 F1508 1
 X81 F1501 1
 X81 F1503 1
 X81 F1505 1
 X82 COST 1878
 X82 F1502 1
 X82 F1506 1
 X82 F1508 1
 X82 F1501 1
 X82 F1503 1
 X82 F1507 1
 X83 COST 1907
 X83 F1502 1
 X83 F1506 1
 X83 F1508 1
 X83 F1501 1
 X83 F1503 1
 X83 F1509 1
 X84 COST 1209
 X84 F1502 1
 X84 F1508 1
 X84 F1501 1
 X84 F1503 1
 X85 COST 2649
 X85 F1502 1
 X85 F1508 1
 X85 F1501 1
 X85 F1503 1
 X86 COST 1269
 X86 F1502 1
 X86 F1508 1
 X86 F1503 1
 X86 F1505 1
 X87 COST 2709
 X87 F1502 1
 X87 F1508 1
 X87 F1503 1
 X87 F1505 1
 X88 COST 1300
 X88 F1502 1
 X88 F1508 1
 X88 F1503 1
 X88 F1507 1
 X89 COST 2740
 X89 F1502 1
 X89 F1508 1
 X89 F1503 1
 X89 F1507 1
 X90 COST 1329
 X90 F1502 1
 X90 F1508 1
 X90 F1503 1
 X90 F1509 1
 X91 COST 2769
 X91 F1502 1
 X91 F1508 1
 X91 F1503 1
 X91 F1509 1
 X92 COST 661
 X92 F1502 1
 X92 F1503 1
 X93 COST 2649
 X93 F1502 1
 X93 F1508 1
 X93 F1501 1
 X93 F1503 1
 X94 COST 2709
 X94 F1502 1
 X94 F1508 1
 X94 F1503 1
 X94 F1505 1
 X95 COST 2740
 X95 F1502 1
 X95 F1508 1
 X95 F1503 1
 X95 F1507 1
 X96 COST 2769
 X96 F1502 1
 X96 F1508 1
 X96 F1503 1
 X96 F1509 1
 X97 COST 2101
 X97 F1502 1
 X97 F1503 1
 X98 COST 691
 X98 F1502 1
 X98 F1505 1
 X99 COST 2131
 X99 F1502 1
 X99 F1505 1
 X100 COST 722
 X100 F1502 1
 X100 F1507 1
 X101 COST 1
 X101 F1502 1
 X101 F1509 1
 X102 COST 751
 X102 F1502 1
 X102 F1509 1
 X103 COST 1818
 X103 F1504 1
 X103 F1506 1
 X103 F1508 1
 X103 F1501 1
 X103 F1503 1
 X103 F1505 1
 X104 COST 1849
 X104 F1504 1
 X104 F1506 1
 X104 F1508 1
 X104 F1501 1
 X104 F1503 1
 X104 F1507 1
 X105 COST 1878
 X105 F1504 1
 X105 F1506 1
 X105 F1508 1
 X105 F1501 1
 X105 F1503 1
 X105 F1509 1
 X106 COST 1210
 X106 F1504 1
 X106 F1506 1
 X106 F1501 1
 X106 F1503 1
 X107 COST 2650
 X107 F1504 1
 X107 F1506 1
 X107 F1501 1
 X107 F1503 1
 X108 COST 1240
 X108 F1504 1
 X108 F1506 1
 X108 F1501 1
 X108 F1505 1
 X109 COST 2680
 X109 F1504 1
 X109 F1506 1
 X109 F1501 1
 X109 F1505 1
 X110 COST 1271
 X110 F1504 1
 X110 F1506 1
 X110 F1501 1
 X110 F1507 1
 X111 COST 2711
 X111 F1504 1
 X111 F1506 1
 X111 F1501 1
 X111 F1507 1
 X112 COST 1300
 X112 F1504 1
 X112 F1506 1
 X112 F1501 1
 X112 F1509 1
 X113 COST 2740
 X113 F1504 1
 X113 F1506 1
 X113 F1501 1
 X113 F1509 1
 X114 COST 1210
 X114 F1504 1
 X114 F1508 1
 X114 F1501 1
 X114 F1503 1
 X115 COST 2650
 X115 F1504 1
 X115 F1508 1
 X115 F1501 1
 X115 F1503 1
 X116 COST 1240
 X116 F1504 1
 X116 F1508 1
 X116 F1501 1
 X116 F1505 1
 X117 COST 2680
 X117 F1504 1
 X117 F1508 1
 X117 F1501 1
 X117 F1505 1
 X118 COST 1271
 X118 F1504 1
 X118 F1508 1
 X118 F1501 1
 X118 F1507 1
 X119 COST 2711
 X119 F1504 1
 X119 F1508 1
 X119 F1501 1
 X119 F1507 1
 X120 COST 1300
 X120 F1504 1
 X120 F1508 1
 X120 F1501 1
 X120 F1509 1
 X121 COST 2740
 X121 F1504 1
 X121 F1508 1
 X121 F1501 1
 X121 F1509 1
 X122 COST 602
 X122 F1504 1
 X122 F1501 1
 X123 COST 2650
 X123 F1504 1
 X123 F1506 1
 X123 F1501 1
 X123 F1503 1
 X124 COST 2680
 X124 F1504 1
 X124 F1506 1
 X124 F1501 1
 X124 F1505 1
 X125 COST 2711
 X125 F1504 1
 X125 F1506 1
 X125 F1501 1
 X125 F1507 1
 X126 COST 2740
 X126 F1504 1
 X126 F1506 1
 X126 F1501 1
 X126 F1509 1
 X127 COST 2650
 X127 F1504 1
 X127 F1508 1
 X127 F1501 1
 X127 F1503 1
 X128 COST 2680
 X128 F1504 1
 X128 F1508 1
 X128 F1501 1
 X128 F1505 1
 X129 COST 2711
 X129 F1504 1
 X129 F1508 1
 X129 F1501 1
 X129 F1507 1
 X130 COST 2740
 X130 F1504 1
 X130 F1508 1
 X130 F1501 1
 X130 F1509 1
 X131 COST 2042
 X131 F1504 1
 X131 F1501 1
 X132 COST 1818
 X132 F1504 1
 X132 F1506 1
 X132 F1508 1
 X132 F1501 1
 X132 F1503 1
 X132 F1505 1
 X133 COST 1849
 X133 F1504 1
 X133 F1506 1
 X133 F1508 1
 X133 F1501 1
 X133 F1503 1
 X133 F1507 1
 X134 COST 1878
 X134 F1504 1
 X134 F1506 1
 X134 F1508 1
 X134 F1501 1
 X134 F1503 1
 X134 F1509 1
 X135 COST 1180
 X135 F1504 1
 X135 F1508 1
 X135 F1501 1
 X135 F1503 1
 X136 COST 2620
 X136 F1504 1
 X136 F1508 1
 X136 F1501 1
 X136 F1503 1
 X137 COST 1240
 X137 F1504 1
 X137 F1508 1
 X137 F1503 1
 X137 F1505 1
 X138 COST 2680
 X138 F1504 1
 X138 F1508 1
 X138 F1503 1
 X138 F1505 1
 X139 COST 1271
 X139 F1504 1
 X139 F1508 1
 X139 F1503 1
 X139 F1507 1
 X140 COST 2711
 X140 F1504 1
 X140 F1508 1
 X140 F1503 1
 X140 F1507 1
 X141 COST 1300
 X141 F1504 1
 X141 F1508 1
 X141 F1503 1
 X141 F1509 1
 X142 COST 2740
 X142 F1504 1
 X142 F1508 1
 X142 F1503 1
 X142 F1509 1
 X143 COST 632
 X143 F1504 1
 X143 F1503 1
 X144 COST 2620
 X144 F1504 1
 X144 F1508 1
 X144 F1501 1
 X144 F1503 1
 X145 COST 2680
 X145 F1504 1
 X145 F1508 1
 X145 F1503 1
 X145 F1505 1
 X146 COST 2711
 X146 F1504 1
 X146 F1508 1
 X146 F1503 1
 X146 F1507 1
 X147 COST 2740
 X147 F1504 1
 X147 F1508 1
 X147 F1503 1
 X147 F1509 1
 X148 COST 2072
 X148 F1504 1
 X148 F1503 1
 X149 COST 662
 X149 F1504 1
 X149 F1505 1
 X150 COST 2102
 X150 F1504 1
 X150 F1505 1
 X151 COST 693
 X151 F1504 1
 X151 F1507 1
 X152 COST 2133
 X152 F1504 1
 X152 F1507 1
 X153 COST 722
 X153 F1504 1
 X153 F1509 1
 X154 COST 1180
 X154 F1506 1
 X154 F1508 1
 X154 F1501 1
 X154 F1503 1
 X155 COST 2620
 X155 F1506 1
 X155 F1508 1
 X155 F1501 1
 X155 F1503 1
 X156 COST 1210
 X156 F1506 1
 X156 F1508 1
 X156 F1501 1
 X156 F1505 1
 X157 COST 2650
 X157 F1506 1
 X157 F1508 1
 X157 F1501 1
 X157 F1505 1
 X158 COST 1241
 X158 F1506 1
 X158 F1508 1
 X158 F1501 1
 X158 F1507 1
 X159 COST 2681
 X159 F1506 1
 X159 F1508 1
 X159 F1501 1
 X159 F1507 1
 X160 COST 1270
 X160 F1506 1
 X160 F1508 1
 X160 F1501 1
 X160 F1509 1
 X161 COST 2710
 X161 F1506 1
 X161 F1508 1
 X161 F1501 1
 X161 F1509 1
 X162 COST 572
 X162 F1506 1
 X162 F1501 1
 X163 COST 2620
 X163 F1506 1
 X163 F1508 1
 X163 F1501 1
 X163 F1503 1
 X164 COST 2650
 X164 F1506 1
 X164 F1508 1
 X164 F1501 1
 X164 F1505 1
 X165 COST 2681
 X165 F1506 1
 X165 F1508 1
 X165 F1501 1
 X165 F1507 1
 X166 COST 2710
 X166 F1506 1
 X166 F1508 1
 X166 F1501 1
 X166 F1509 1
 X167 COST 2012
 X167 F1506 1
 X167 F1501 1
 X168 COST 1150
 X168 F1506 1
 X168 F1508 1
 X168 F1501 1
 X168 F1503 1
 X169 COST 2590
 X169 F1506 1
 X169 F1508 1
 X169 F1501 1
 X169 F1503 1
 X170 COST 1210
 X170 F1506 1
 X170 F1508 1
 X170 F1503 1
 X170 F1505 1
 X171 COST 2650
 X171 F1506 1
 X171 F1508 1
 X171 F1503 1
 X171 F1505 1
 X172 COST 1241
 X172 F1506 1
 X172 F1508 1
 X172 F1503 1
 X172 F1507 1
 X173 COST 2681
 X173 F1506 1
 X173 F1508 1
 X173 F1503 1
 X173 F1507 1
 X174 COST 1270
 X174 F1506 1
 X174 F1508 1
 X174 F1503 1
 X174 F1509 1
 X175 COST 2710
 X175 F1506 1
 X175 F1508 1
 X175 F1503 1
 X175 F1509 1
 X176 COST 602
 X176 F1506 1
 X176 F1503 1
 X177 COST 2590
 X177 F1506 1
 X177 F1508 1
 X177 F1501 1
 X177 F1503 1
 X178 COST 2650
 X178 F1506 1
 X178 F1508 1
 X178 F1503 1
 X178 F1505 1
 X179 COST 2681
 X179 F1506 1
 X179 F1508 1
 X179 F1503 1
 X179 F1507 1
 X180 COST 2710
 X180 F1506 1
 X180 F1508 1
 X180 F1503 1
 X180 F1509 1
 X181 COST 2042
 X181 F1506 1
 X181 F1503 1
 X182 COST 632
 X182 F1506 1
 X182 F1505 1
 X183 COST 2072
 X183 F1506 1
 X183 F1505 1
 X184 COST 663
 X184 F1506 1
 X184 F1507 1
 X185 COST 2103
 X185 F1506 1
 X185 F1507 1
 X186 COST 692
 X186 F1506 1
 X186 F1509 1
 X187 COST 2132
 X187 F1506 1
 X187 F1509 1
 X188 COST 1150
 X188 F1506 1
 X188 F1508 1
 X188 F1501 1
 X188 F1503 1
 X189 COST 2590
 X189 F1506 1
 X189 F1508 1
 X189 F1501 1
 X189 F1503 1
 X190 COST 1180
 X190 F1506 1
 X190 F1508 1
 X190 F1501 1
 X190 F1505 1
 X191 COST 2620
 X191 F1506 1
 X191 F1508 1
 X191 F1501 1
 X191 F1505 1
 X192 COST 1211
 X192 F1506 1
 X192 F1508 1
 X192 F1501 1
 X192 F1507 1
 X193 COST 2651
 X193 F1506 1
 X193 F1508 1
 X193 F1501 1
 X193 F1507 1
 X194 COST 1240
 X194 F1506 1
 X194 F1508 1
 X194 F1501 1
 X194 F1509 1
 X195 COST 2680
 X195 F1506 1
 X195 F1508 1
 X195 F1501 1
 X195 F1509 1
 X196 COST 542
 X196 F1508 1
 X196 F1501 1
 X197 COST 2590
 X197 F1506 1
 X197 F1508 1
 X197 F1501 1
 X197 F1503 1
 X198 COST 2620
 X198 F1506 1
 X198 F1508 1
 X198 F1501 1
 X198 F1505 1
 X199 COST 2651
 X199 F1506 1
 X199 F1508 1
 X199 F1501 1
 X199 F1507 1
 X200 COST 2680
 X200 F1506 1
 X200 F1508 1
 X200 F1501 1
 X200 F1509 1
 X201 COST 1982
 X201 F1508 1
 X201 F1501 1
 X202 COST 572
 X202 F1508 1
 X202 F1503 1
 X203 COST 2012
 X203 F1508 1
 X203 F1503 1
 X204 COST 602
 X204 F1508 1
 X204 F1505 1
 X205 COST 2042
 X205 F1508 1
 X205 F1505 1
 X206 COST 633
 X206 F1508 1
 X206 F1507 1
 X207 COST 2073
 X207 F1508 1
 X207 F1507 1
 X208 COST 662
 X208 F1508 1
 X208 F1509 1
 X209 COST 2102
 X209 F1508 1
 X209 F1509 1
RHS
 B F1500 1
 B F1502 1
 B F1504 1
 B F1506 1
 B F1508 1
 B F1501 1
 B F1503 1
 B F1505 1
 B F1507 1
 B F1509 1
BOUNDS
 BV BND X1
 BV BND X2
 BV BND X3
 BV BND X4
 BV BND X5
 BV BND X6
 BV BND X7
 BV BND X8
 BV BND X9
 BV BND X10
 BV BND X11
 BV BND X12
 BV BND X13
 BV BND X14
 BV BND X15
 BV BND X16
 BV BND X17
 BV BND X18
 BV BND X19
 BV BND X20
 BV BND X21
 BV BND X22
 BV BND X23
 BV BND X24
 BV BND X25
 BV BND X26
 BV BND X27
 BV BND X28
 BV BND X29
 BV BND X30
 BV BND X31
 BV BND X32
 BV BND X33
 BV BND X34
 BV BND X35
 BV BND X36
 BV BND X37
 BV BND X38
 BV BND X39
 BV BND X40
 BV BND X41
 BV BND X42
 BV BND X43
 BV BND X44
 BV BND X45
 BV BND X46
 BV BND X47
 BV BND X48
 BV BND X49
 BV BND X50
 BV BND X51
 BV BND X52
 BV BND X53
 BV BND X54
 BV BND X55
 BV BND X56
 BV BND X57
 BV BND X58
 BV BND X59
 BV BND X60
 BV BND X61
 BV BND X62
 BV BND X63
 BV BND X64
 BV BND X65
 BV BND X66
 BV BND X67
 BV BND X68
 BV BND X69
 BV BND X70
 BV BND X71
 BV BND X72
 BV BND X73
 BV BND X74
 BV BND X75
 BV BND X76
 BV BND X77
 BV BND X78
 BV BND X79
 BV BND X80
 BV BND X81
 BV BND X82
 BV BND X83
 BV BND X84
 BV BND X85
 BV BND X86
 BV BND X87
 BV BND X88
 BV BND X89
 BV BND X90
 BV BND X91
 BV BND X92
 BV BND X93
 BV BND X94
 BV BND X95
 BV BND X96
 BV BND X97
 BV BND X98
 BV BND X99
 BV BND X100
 BV BND X101
 BV BND X102
 BV BND X103
 BV BND X104
 BV BND X105
 BV BND X106
 BV BND X107
 BV BND X108
 BV BND X109
 BV BND X110
 BV BND X111
 BV BND X112
 BV BND X113
 BV BND X114
 BV BND X115
 BV BND X116
 BV BND X117
 BV BND X118
 BV BND X119
 BV BND X120
 BV BND X121
 BV BND X122
 BV BND X123
 BV BND X124
 BV BND X125
 BV BND X126
 BV BND X127
 BV BND X128
 BV BND X129
 BV BND X130
 BV BND X131
 BV BND X132
 BV BND X133
 BV BND X134
 BV BND X135
 BV BND X136
 BV BND X137
 BV BND X138
 BV BND X139
 BV BND X140
 BV BND X141
 BV BND X142
 BV BND X143
 BV BND X144
 BV BND X145
 BV BND X146
 BV BND X147
 BV BND X148
 BV BND X149
 BV BND X150
 BV BND X151
 BV BND X152
 BV BND X153
 BV BND X154
 BV BND X155
 BV BND X156
 BV BND X157
 BV BND X158
 BV BND X159
 BV BND X160
 BV BND X161
 BV BND X162
 BV BND X163
 BV BND X164
 BV BND X165
 BV BND X166
 BV BND X167
 BV BND X168
 BV BND X169
 BV BND X170
 BV BND X171
 BV BND X172
 BV BND X173
 BV BND X174
 BV BND X175
 BV BND X176
 BV BND X177
 BV BND X178
 BV BND X179
 BV BND X180
 BV BND X181
 BV BND X182
 BV BND X183
 BV BND X184
 BV BND X185
 BV BND X186
 BV BND X187
 BV BND X188
 BV BND X189
 BV BND X190
 BV BND X191
 BV BND X192
 BV BND X193
 BV BND X194
 BV BND X195
 BV BND X196
 BV BND X197
 BV BND X198
 BV BND X199
 BV BND X200
 BV BND X201
 BV BND X202
 BV BND X203
 BV BND X204
 BV BND X205
 BV BND X206
 BV BND X207
 BV BND X208
 BV BND X209
ENDATA
